p cnf 12 21
-1 4 0
-2 5 0
-3 6 0 
-4 10 0
-5 11 0 
-6 12 0 
-10 4 7 0
-10 -1 7 0
-11 5 8 0
-11 -2 8 0
-12 6 9 0
-12 -3 9 0
-4 1 -7 0
-5 2 -8 0
-6 3 -9 0
-1 7 0
-2 8 0
-3 9 0
1 0 
5 0
12 0